143542
0,42,78,90,14,3,60,102,6,17,48,36,38,35,70,53,94,100,69,93,77,95,59,2,104,37,103,66,40,10,84,47,72,1,32,83,52,62,31,74,34,99,44,81,50,71,24,61,21,20,16,89,63,15,19,55,39,87,12,5,76,45,85,80,98,67,18,41,68,97,30,64,51,4,29,28,54,7,96,105,8,91,22,11,92,88,79,56,82,33,25,49,46,13,73,101,23,75,57,27,26,9,58,65,43,86,0